Problem:    
Rows:       256
Columns:    89 (72 integer, 72 binary)
Non-zeros:  924
Status:     INTEGER OPTIMAL
Objective:  value = 4.62648 (MINimum)

   No.   Row name        Activity     Lower bound   Upper bound
------ ------------    ------------- ------------- -------------
     1 r.5                   1028.63             0               
     2 r.6                  -1021.58      -1023.58               
     3 r.7                   4.62648             0               
     4 r.8                   3.52988      -1013.09               
     5 r.9                   1028.63             0               
     6 r.10                    -1022      -1023.54               
     7 r.11                  4.62648             0               
     8 r.12                  2.42105      -1013.05               
     9 r.13                  1028.63             0               
    10 r.14                 -1022.99      -1023.38               
    11 r.15                  4.62648             0               
    12 r.16                  2.42105      -1009.42               
    13 r.17                  1028.63             0               
    14 r.18                 -1023.61      -1023.66               
    15 r.19                  4.62648             0               
    16 r.20                   0.0479      -1013.09               
    17 r.21                  1028.63             0               
    18 r.22                 -1022.46      -1023.47               
    19 r.23                  4.62648             0               
    20 r.24                  2.42105      -1013.07               
    21 r.25                  1028.63             0               
    22 r.26                 -1019.37       -1022.9               
    23 r.27                  4.62648             0               
    24 r.28                 -1016.84      -1020.37               
    25 r.29                  1028.63             0               
    26 r.30                 -1020.47      -1022.89               
    27 r.31                  4.62648             0               
    28 r.32                  4.62648      -1019.14               
    29 r.33                  1028.63             0               
    30 r.34                 -1023.95      -1023.95               
    31 r.35                  4.62648             0               
    32 r.36                   0.0479      -1022.67               
    33 r.37                        1             1             = 
    34 r.38                        1             1             = 
    35 r.39                        1             1             = 
    36 r.40                        1             1             = 
    37 r.41                        1             1             = 
    38 r.42                        1             1             = 
    39 r.43                        1             1             = 
    40 r.44                        1             1             = 
    41 r.45                        2             2               
    42 r.46                       -2         -1025               
    43 r.47                -0.422067      -1023.54               
    44 r.48                     1024             2               
    45 r.49                    -1024         -1025               
    46 r.50                  2046.89      -1013.05               
    47 r.51                        2             2               
    48 r.52                       -2         -1025               
    49 r.53                 -1.41132      -1023.38               
    50 r.54                     1024             2               
    51 r.55                    -1024         -1025               
    52 r.56                  2046.89      -1009.42               
    53 r.57                        2             2               
    54 r.58                       -2         -1025               
    55 r.59                 -2.02849      -1023.66               
    56 r.60                     1024             2               
    57 r.61                    -1024         -1025               
    58 r.62                  2044.52      -1013.09               
    59 r.63                        2             2               
    60 r.64                       -2         -1025               
    61 r.65                -0.885245      -1023.47               
    62 r.66                     1024             2               
    63 r.67                    -1024         -1025               
    64 r.68                  2046.89      -1013.07               
    65 r.69                 -1021.79       -1022.9               
    66 r.70                 -1019.26      -1020.37               
    67 r.71                  -1022.9       -1022.9               
    68 r.72                 -1020.37      -1020.37               
    69 r.73                        2             2               
    70 r.74                       -2         -1025               
    71 r.75                 -1022.89      -1022.89               
    72 r.76                     1024             2               
    73 r.77                    -1024         -1025               
    74 r.78                   2049.1      -1019.14               
    75 r.79                  1.95108             0               
    76 r.80                  3.48198             0               
    77 r.81                  1.95108             0               
    78 r.82                  3.48198             0               
    79 r.83                        2             2               
    80 r.84                       -2         -1025               
    81 r.85                 0.422067      0.422067               
    82 r.86                     1024             2               
    83 r.87                    -1024         -1025               
    84 r.88                  2049.11       10.9135               
    85 r.89                        2             2               
    86 r.90                       -2         -1025               
    87 r.91                -0.989253      -1023.38               
    88 r.92                     1024             2               
    89 r.93                    -1024         -1025               
    90 r.94                     2048      -1009.42               
    91 r.95                        2             2               
    92 r.96                       -2         -1025               
    93 r.97                 -1.60642      -1023.66               
    94 r.98                     1024             2               
    95 r.99                    -1024         -1025               
    96 r.100                 2045.63      -1013.09               
    97 r.101                       2             2               
    98 r.102                      -2         -1025               
    99 r.103               -0.463178      -1023.47               
   100 r.104                    1024             2               
   101 r.105                   -1024         -1025               
   102 r.106                    2048      -1013.07               
   103 r.107                       2             2               
   104 r.108                      -2         -1025               
   105 r.109                -1021.37       -1022.9               
   106 r.110                    1024             2               
   107 r.111                   -1024         -1025               
   108 r.112                 1028.74      -1020.37               
   109 r.113                -1022.47      -1022.89               
   110 r.114                  2.6275      -1019.14               
   111 r.115                -1022.89      -1022.89               
   112 r.116                 2.20543      -1019.14               
   113 r.117                  1.4879             0               
   114 r.118                 2.37315             0               
   115 r.119                  1.4879             0               
   116 r.120                 2.37315             0               
   117 r.121                       2             2               
   118 r.122                      -2         -1025               
   119 r.123                 1.41132      0.422067               
   120 r.124                    1024             2               
   121 r.125                   -1024         -1025               
   122 r.126                 2049.11       10.9135               
   123 r.127                       2             2               
   124 r.128                      -2         -1025               
   125 r.129                0.989253      0.463178               
   126 r.130                    1024             2               
   127 r.131                   -1024         -1025               
   128 r.132                    2048       10.9516               
   129 r.133                       0             0               
   130 r.134                 2.02849             0               
   131 r.135                0.344655             0               
   132 r.136                 2.37315             0               
   133 r.137                       2             2               
   134 r.138                      -2         -1025               
   135 r.139                -1023.47      -1023.47               
   136 r.140                    1024             2               
   137 r.141                   -1024         -1025               
   138 r.142                    2048      -1013.07               
   139 r.143                       2             2               
   140 r.144                      -2         -1025               
   141 r.145                -1020.38       -1022.9               
   142 r.146                    1024             2               
   143 r.147                   -1024         -1025               
   144 r.148                 1028.74      -1020.37               
   145 r.149                -1021.48      -1022.89               
   146 r.150                 3.61675      -1019.14               
   147 r.151                -1022.89      -1022.89               
   148 r.152                 2.20543      -1019.14               
   149 r.153                0.344655             0               
   150 r.154                 2.37315             0               
   151 r.155                0.344655             0               
   152 r.156                 2.37315             0               
   153 r.157                       2             2               
   154 r.158                      -2         -1025               
   155 r.159                 2.02849      0.422067               
   156 r.160                    1024             2               
   157 r.161                   -1024         -1025               
   158 r.162                 2051.48       10.9135               
   159 r.163                       2             2               
   160 r.164                      -2         -1025               
   161 r.165                 1.60642      0.463178               
   162 r.166                    1024             2               
   163 r.167                   -1024         -1025               
   164 r.168                 2050.37       10.9516               
   165 r.169                       2             2               
   166 r.170                      -2         -1025               
   167 r.171                -1022.86      -1023.47               
   168 r.172                    1024             2               
   169 r.173                   -1024         -1025               
   170 r.174                 2050.37      -1013.07               
   171 r.175                       2             2               
   172 r.176                      -2         -1025               
   173 r.177                -1019.77       -1022.9               
   174 r.178                    1024             2               
   175 r.179                   -1024         -1025               
   176 r.180                 1031.12      -1020.37               
   177 r.181                -1020.86      -1022.89               
   178 r.182                 4.23393      -1019.14               
   179 r.183                -1020.52      -1022.89               
   180 r.184                 4.57858      -1019.14               
   181 r.185                       0             0               
   182 r.186                       0             0               
   183 r.187                       0             0               
   184 r.188                       0             0               
   185 r.189                       2             2               
   186 r.190                      -2         -1025               
   187 r.191                0.885245      0.422067               
   188 r.192                    1024             2               
   189 r.193                   -1024         -1025               
   190 r.194                 2049.11       10.9135               
   191 r.195                       2             2               
   192 r.196                      -2         -1025               
   193 r.197                0.463178      0.463178               
   194 r.198                    1024             2               
   195 r.199                   -1024         -1025               
   196 r.200                    2048       10.9516               
   197 r.201                       2             2               
   198 r.202                      -2         -1025               
   199 r.203                 1023.47      0.617172               
   200 r.204                    1024             2               
   201 r.205                   -1024         -1025               
   202 r.206                    2048       14.5783               
   203 r.207                       2             2               
   204 r.208                      -2         -1025               
   205 r.209                 1022.86      0.344656               
   206 r.210                    1024             2               
   207 r.211                   -1024         -1025               
   208 r.212                 2045.63       10.9129               
   209 r.213                -1020.91       -1022.9               
   210 r.214                -1018.37      -1020.37               
   211 r.215                -1021.79       -1022.9               
   212 r.216                -1019.26      -1020.37               
   213 r.217                -1022.01      -1022.89               
   214 r.218                 3.09068      -1019.14               
   215 r.219                -1022.89      -1022.89               
   216 r.220                 2.20543      -1019.14               
   217 r.221                0.961827             0               
   218 r.222                 2.37315             0               
   219 r.223                0.961827             0               
   220 r.224                 2.37315             0               
   221 r.225                       2             2               
   222 r.226                      -2         -1025               
   223 r.227                 1021.37      0.463178               
   224 r.228                    1024             2               
   225 r.229                   -1024         -1025               
   226 r.230                 3067.26       10.9516               
   227 r.231                       2             2               
   228 r.232                      -2         -1025               
   229 r.233                 1020.38      0.617172               
   230 r.234                    1024             2               
   231 r.235                   -1024         -1025               
   232 r.236                 3067.26       14.5783               
   233 r.237                       2             2               
   234 r.238                      -2         -1025               
   235 r.239                 1019.77      0.344656               
   236 r.240                    1024             2               
   237 r.241                   -1024         -1025               
   238 r.242                 3064.88       10.9129               
   239 r.243                       2             2               
   240 r.244                      -2         -1025               
   241 r.245                 -1.0966      -1022.89               
   242 r.246                    1024             2               
   243 r.247                   -1024         -1025               
   244 r.248                 3069.46      -1019.14               
   245 r.249                       2             2               
   246 r.250                      -2         -1025               
   247 r.251                 1022.89      0.422067               
   248 r.252                    1024             2               
   249 r.253                   -1024         -1025               
   250 r.254                  2046.9       10.9135               
   251 r.255                       2             2               
   252 r.256                      -2         -1025               
   253 r.257                  1.0966        1.0966               
   254 r.258                    1024             2               
   255 r.259                   -1024         -1025               
   256 r.260                 1026.54        3.6344               

   No. Column name       Activity     Lower bound   Upper bound
------ ------------    ------------- ------------- -------------
     1 tt                    4.62648             0               
     2 s_1_1        *              1             0             1 
     3 t_1_1                 2.20543             0               
     4 s_1_6        *              1             0             1 
     5 s_2_1        *              0             0             1 
     6 t_2_1                  1.0966             0               
     7 s_2_6        *              0             0             1 
     8 s_1_2        *              1             0             1 
     9 t_1_2                  2.6275             0               
    10 s_1_7        *              1             0             1 
    11 s_2_2        *              0             0             1 
    12 t_2_2                 2.20543             0               
    13 s_2_7        *              0             0             1 
    14 s_1_3        *              1             0             1 
    15 t_1_3                 3.61675             0               
    16 s_2_3        *              0             0             1 
    17 t_2_3                 2.20543             0               
    18 s_1_4        *              1             0             1 
    19 t_1_4                 4.23393             0               
    20 s_2_4        *              0             0             1 
    21 t_2_4                 4.57858             0               
    22 s_1_5        *              1             0             1 
    23 t_1_5                 3.09068             0               
    24 s_2_5        *              0             0             1 
    25 t_2_5                 2.20543             0               
    26 t_1_6                       0             0               
    27 t_2_6                 1021.46             0               
    28 t_1_7                  1.0966             0               
    29 t_2_7                       0             0               
    30 s_1_8        *              1             0             1 
    31 t_1_8                 4.57858             0               
    32 s_2_8        *              0             0             1 
    33 t_2_8                 4.57858             0               
    34 r_1_1_2      *              0             0             1 
    35 u_1_1_2      *              0             0             1 
    36 r_2_1_2      *              1             0             1 
    37 u_2_1_2      *              0             0             1 
    38 r_1_1_3      *              0             0             1 
    39 u_1_1_3      *              0             0             1 
    40 r_2_1_3      *              1             0             1 
    41 u_2_1_3      *              0             0             1 
    42 r_1_1_4      *              0             0             1 
    43 u_1_1_4      *              0             0             1 
    44 r_2_1_4      *              1             0             1 
    45 u_2_1_4      *              0             0             1 
    46 r_1_1_5      *              0             0             1 
    47 u_1_1_5      *              0             0             1 
    48 r_2_1_5      *              1             0             1 
    49 u_2_1_5      *              0             0             1 
    50 r_1_1_7      *              0             0             1 
    51 u_1_1_7      *              1             0             1 
    52 r_2_1_7      *              1             0             1 
    53 u_2_1_7      *              0             0             1 
    54 r_1_2_3      *              0             0             1 
    55 u_1_2_3      *              0             0             1 
    56 r_2_2_3      *              1             0             1 
    57 u_2_2_3      *              0             0             1 
    58 r_1_2_4      *              0             0             1 
    59 u_1_2_4      *              0             0             1 
    60 r_2_2_4      *              1             0             1 
    61 u_2_2_4      *              0             0             1 
    62 r_1_2_5      *              0             0             1 
    63 u_1_2_5      *              0             0             1 
    64 r_2_2_5      *              1             0             1 
    65 u_2_2_5      *              0             0             1 
    66 r_1_2_6      *              0             0             1 
    67 u_1_2_6      *              1             0             1 
    68 r_2_2_6      *              1             0             1 
    69 u_2_2_6      *              0             0             1 
    70 r_1_3_5      *              0             0             1 
    71 u_1_3_5      *              1             0             1 
    72 r_2_3_5      *              1             0             1 
    73 u_2_3_5      *              0             0             1 
    74 r_1_3_6      *              0             0             1 
    75 u_1_3_6      *              1             0             1 
    76 r_2_3_6      *              1             0             1 
    77 u_2_3_6      *              0             0             1 
    78 r_1_4_5      *              0             0             1 
    79 u_1_4_5      *              1             0             1 
    80 r_2_4_5      *              1             0             1 
    81 u_2_4_5      *              0             0             1 
    82 r_1_4_6      *              0             0             1 
    83 u_1_4_6      *              1             0             1 
    84 r_2_4_6      *              1             0             1 
    85 u_2_4_6      *              0             0             1 
    86 r_1_6_7      *              0             0             1 
    87 u_1_6_7      *              0             0             1 
    88 r_2_6_7      *              1             0             1 
    89 u_2_6_7      *              0             0             1 

Integer feasibility conditions:

KKT.PE: max.abs.err = 2.27e-13 on row 30
        max.rel.err = 1.11e-16 on row 71
        High quality

KKT.PB: max.abs.err = 0.00e+00 on row 0
        max.rel.err = 0.00e+00 on row 0
        High quality

End of output
